3 
4  52 
5  07 22 37 52 
6  02 10 18 25 33 40 48 55 
7  03 10 18 25 33 40 48 55 
8  03 10 18 25 33 41 51 59 
9  06 14 21 29 36 44 51 59 
10  06 14 21 29 36 44 51 59 
11  06 14 21 29 36 44 51 59 
12  06 14 21 29 36 44 51 58 
13  05 13 20 28 35 43 50 58 
14  05 13 20 28 35 43 50 58 
15  05 13 20 28 35 43 50 58 
16  05 13 20 28 35 43 50 58 
17  05 13 20 28 35 43 50 58 
18  05 13 22 30 37 45 52 
19  00 07 15 22 30 37 45 52 
20  00 07 15 22 30 37 45 
21  00 11 27 42 58 
22  12 28 42 57 
23  14 
0 
